0 176 
1 180 
2 189 
3 190 
4 193 
5 201 
6 204 
7 207 
8 210 
9 211 
10 210 
11 209 
12 209 
13 209 
14 210 
15 209 
16 208 
17 208 
18 208 
19 208 
20 209 
21 213 
22 212 
23 212 
24 211 
25 210 
26 209 
27 210 
28 210 
29 210 
30 209 
31 207 
32 206 
33 205 
34 204 
35 205 
36 205 
37 204 
38 204 
39 203 
40 201 
41 203 
42 203 
43 203 
44 204 
45 204 
46 204 
47 203 
48 202 
49 203 
50 202 
51 201 
52 199 
53 198 
54 198 
55 197 
56 196 
57 195 
58 194 
59 195 
60 193 
61 192 
62 191 
63 190 
64 190 
65 190 
66 189 
67 189 
68 188 
69 187 
70 185 
71 184 
72 181 
73 180 
74 179 
75 177 
76 177 
77 178 
78 181 
79 178 
80 177 
81 176 
82 175 
83 174 
84 173 
85 171 
86 170 
87 167 
88 168 
89 172 
90 171 
91 170 
92 170 
93 169 
94 169 
95 168 
96 167 
97 167 
98 166 
99 164 
100 163 
101 163 
102 162 
103 160 
104 163 
105 167 
106 167 
107 167 
108 169 
109 170 
110 170 
111 169 
112 168 
113 168 
114 167 
115 165 
116 161 
117 160 
118 161 
119 160 
120 160 
121 160 
122 160 
123 160 
124 159 
125 161 
126 161 
127 160 
128 159 
129 157 
130 156 
131 155 
132 153 
133 155 
134 154 
135 152 
136 150 
137 149 
138 149 
139 148 
140 147 
141 148 
142 148 
143 149 
144 151 
145 150 
146 150 
147 151 
148 150 
149 148 
150 145 
151 143 
152 143 
153 145 
154 146 
155 147 
156 148 
157 148 
158 148 
159 147 
160 146 
161 145 
162 143 
163 140 
164 139 
165 139 
166 138 
167 138 
168 137 
169 136 
170 135 
171 134 
172 136 
173 139 
174 140 
175 140 
176 138 
177 137 
178 137 
179 137 
180 136 
181 135 
182 134 
183 133 
184 133 
185 133 
186 132 
187 131 
188 130 
189 129 
190 127 
191 126 
192 127 
193 127 
194 128 
195 127 
196 126 
197 126 
198 125 
199 124 
200 123 
201 123 
202 122 
203 121 
204 120 
205 119 
206 117 
207 114 
208 113 
209 113 
210 114 
211 114 
212 114 
213 115 
214 114 
215 116 
216 118 
217 117 
218 116 
219 114 
220 113 
221 113 
222 116 
223 115 
224 116 
225 117 
226 117 
227 119 
228 120 
229 120 
230 119 
231 119 
232 118 
233 117 
234 116 
235 115 
236 115 
237 114 
238 112 
239 112 
240 112 
241 114 
242 113 
243 112 
244 111 
245 109 
246 107 
247 107 
248 107 
249 106 
250 105 
251 104 
252 104 
253 103 
254 103 
255 101 
256 100 
257 101 
258 99 
259 96 
260 96 
261 98 
262 101 
263 101 
264 101 
265 101 
266 101 
267 106 
268 106 
269 105 
270 104 
271 104 
272 104 
273 104 
274 103 
275 101 
276 101 
277 101 
278 100 
279 99 
280 98 
281 95 
282 96 
283 96 
284 95 
285 95 
286 94 
287 92 
288 91 
289 90 
290 89 
291 88 
292 88 
293 87 
294 85 
295 86 
296 86 
297 86 
298 84 
299 83 
300 81 
301 81 
302 81 
303 80 
304 79 
305 79 
306 77 
307 75 
308 74 
309 73 
310 73 
311 72 
312 72 
313 69 
314 68 
315 69 
316 67 
317 65 
318 65 
319 63 
320 63 
321 61 
322 62 
323 61 
324 59 
325 60 
326 58 
327 57 
328 55 
329 50 
330 47 
331 48 
332 45 
333 41 
334 40 
335 39 
336 39 
337 39 
338 44 
339 41 
340 40 
341 38 
342 38 
343 36 
344 36 
345 35 
346 32 
347 32 
348 31 
349 29 
350 29 
351 30 
352 27 
353 24 
354 22 
355 19 
356 19 
357 21 
358 22 
359 22 
360 22 
361 21 
362 21 
363 20 
364 19 
365 17 
366 16 
367 16 
368 15 
369 13 
370 12 
371 12 
372 11 
373 9 
374 11 
375 9 
376 9 
377 7 
378 6 
379 6 
380 6 
381 6 
382 6 
383 5 
384 4 
385 3 
386 1 
387 0 
388 0 

